(declare-fun _for_it_23 () Int)
(declare-fun _for_it_55 () Int)
(declare-fun kfdia () Int)
(declare-fun kidia () Int)
(declare-fun klev () Int)
(declare-fun ncldtop () Int)

(assert (forall ((_if_cond_62_val (Array Int Int)) (_if_cond_63_val (Array Int Int)) (jn_val (Array Int Int)))
  (and
    (forall ((_for_it_56_0 Int) (_for_it_56_1 Int))
      (or
        (not (= (select _if_cond_63_val (- (+ (* (+ _for_it_55 1) (- kfdia kidia)) _for_it_56_1 (* (- (+ _for_it_23 1) ncldtop) (- (* kfdia 4) (* kidia 4))) 1) kidia)) 1))
        (not (= (select _if_cond_62_val (- (+ _for_it_55 (* 4 _for_it_23) 4) (* ncldtop 4))) 1))
        (not (<= _for_it_56_1 (+ kfdia (- 1))))
        (not (<= (+ kidia (- 1)) _for_it_56_1))
        (not (= (select _if_cond_62_val (- (+ _for_it_55 (* 4 _for_it_23) 5) (* ncldtop 4))) 1))
        (not (<= _for_it_56_0 (+ kfdia (- 1))))
        (not (<= (+ kidia (- 1)) _for_it_56_0))
        (not (= (+ (select jn_val (- (+ _for_it_55 (* 4 _for_it_23) 4) (* ncldtop 4))) (- 1)) (+ (select jn_val (- (+ _for_it_55 (* 4 _for_it_23) 5) (* ncldtop 4))) (- 1))))
        (not (= (select _if_cond_63_val (- (+ (* _for_it_55 (- kfdia kidia)) _for_it_56_0 (* (- (+ _for_it_23 1) ncldtop) (- (* kfdia 4) (* kidia 4))) 1) kidia)) 1))
        (not (= _for_it_56_0 _for_it_56_1))
        (not (= _for_it_55 (+ _for_it_55 1)))
      )
    )
    (forall ((_for_it_56_0 Int) (_for_it_56_1 Int))
      (or
        (not (= (+ (select jn_val (- (+ _for_it_55 (* 4 _for_it_23) 4) (* ncldtop 4))) (- 1)) (+ _for_it_55 1)))
        (not (= _for_it_55 (+ (select jn_val (- (+ _for_it_55 (* 4 _for_it_23) 5) (* ncldtop 4))) (- 1))))
        (not (= (select _if_cond_63_val (- (+ (* (+ _for_it_55 1) (- kfdia kidia)) _for_it_56_1 (* (- (+ _for_it_23 1) ncldtop) (- (* kfdia 4) (* kidia 4))) 1) kidia)) 1))
        (not (= (select _if_cond_62_val (- (+ _for_it_55 (* 4 _for_it_23) 4) (* ncldtop 4))) 1))
        (not (<= _for_it_56_1 (+ kfdia (- 1))))
        (not (<= (+ kidia (- 1)) _for_it_56_1))
        (not (= (select _if_cond_62_val (- (+ _for_it_55 (* 4 _for_it_23) 5) (* ncldtop 4))) 1))
        (not (<= _for_it_56_0 (+ kfdia (- 1))))
        (not (<= (+ kidia (- 1)) _for_it_56_0))
        (not (= (select _if_cond_63_val (- (+ (* _for_it_55 (- kfdia kidia)) _for_it_56_0 (* (- (+ _for_it_23 1) ncldtop) (- (* kfdia 4) (* kidia 4))) 1) kidia)) 1))
        (not (= _for_it_56_0 _for_it_56_1))
      )
    )
    (forall ((_for_it_56_0 Int) (_for_it_56_1 Int))
      (or
        (not (= (select _if_cond_63_val (- (+ (* (+ _for_it_55 1) (- kfdia kidia)) _for_it_56_1 (* (- (+ _for_it_23 1) ncldtop) (- (* kfdia 4) (* kidia 4))) 1) kidia)) 1))
        (not (= (select _if_cond_62_val (- (+ _for_it_55 (* 4 _for_it_23) 4) (* ncldtop 4))) 1))
        (not (<= _for_it_56_1 (+ kfdia (- 1))))
        (not (<= (+ kidia (- 1)) _for_it_56_1))
        (not (= (select _if_cond_62_val (- (+ _for_it_55 (* 4 _for_it_23) 5) (* ncldtop 4))) 1))
        (not (<= _for_it_56_0 (+ kfdia (- 1))))
        (not (<= (+ kidia (- 1)) _for_it_56_0))
        (not (= (select _if_cond_63_val (- (+ (* _for_it_55 (- kfdia kidia)) _for_it_56_0 (* (- (+ _for_it_23 1) ncldtop) (- (* kfdia 4) (* kidia 4))) 1) kidia)) 1))
      )
    )
    (and
      (<= 0 _for_it_55)
      (<= (+ _for_it_55 1) 4)
      (<= ncldtop (+ klev (- 1)))
      (<= kidia (+ kfdia (- 1)))
    )
    (forall ((_for_it_56_0 Int) (_for_it_56_1 Int))
      (or
        (not (= (select _if_cond_63_val (- (+ (* (+ _for_it_55 1) (- kfdia kidia)) _for_it_56_1 (* (- (+ _for_it_23 1) ncldtop) (- (* kfdia 4) (* kidia 4))) 1) kidia)) 1))
        (not (= (select _if_cond_62_val (- (+ _for_it_55 (* 4 _for_it_23) 4) (* ncldtop 4))) 1))
        (not (<= _for_it_56_1 (+ kfdia (- 1))))
        (not (<= (+ kidia (- 1)) _for_it_56_1))
        (not (= (select _if_cond_62_val (- (+ _for_it_55 (* 4 _for_it_23) 5) (* ncldtop 4))) 1))
        (not (<= _for_it_56_0 (+ kfdia (- 1))))
        (not (<= (+ kidia (- 1)) _for_it_56_0))
        (not (= (+ (select jn_val (- (+ _for_it_55 (* 4 _for_it_23) 4) (* ncldtop 4))) (- 1)) (+ (select jn_val (- (+ _for_it_55 (* 4 _for_it_23) 5) (* ncldtop 4))) (- 1))))
        (not (= (select _if_cond_63_val (- (+ (* _for_it_55 (- kfdia kidia)) _for_it_56_0 (* (- (+ _for_it_23 1) ncldtop) (- (* kfdia 4) (* kidia 4))) 1) kidia)) 1))
        (not (= _for_it_56_0 _for_it_56_1))
      )
    )
    (forall ((_for_it_56_0 Int) (_for_it_56_1 Int))
      (or
        (not (= (+ (select jn_val (- (+ _for_it_55 (* 4 _for_it_23) 4) (* ncldtop 4))) (- 1)) (+ _for_it_55 1)))
        (not (= (select _if_cond_63_val (- (+ (* (+ _for_it_55 1) (- kfdia kidia)) _for_it_56_1 (* (- (+ _for_it_23 1) ncldtop) (- (* kfdia 4) (* kidia 4))) 1) kidia)) 1))
        (not (= (select _if_cond_62_val (- (+ _for_it_55 (* 4 _for_it_23) 4) (* ncldtop 4))) 1))
        (not (<= _for_it_56_1 (+ kfdia (- 1))))
        (not (<= (+ kidia (- 1)) _for_it_56_1))
        (not (= (select _if_cond_62_val (- (+ _for_it_55 (* 4 _for_it_23) 5) (* ncldtop 4))) 1))
        (not (<= _for_it_56_0 (+ kfdia (- 1))))
        (not (<= (+ kidia (- 1)) _for_it_56_0))
        (not (= (select _if_cond_63_val (- (+ (* _for_it_55 (- kfdia kidia)) _for_it_56_0 (* (- (+ _for_it_23 1) ncldtop) (- (* kfdia 4) (* kidia 4))) 1) kidia)) 1))
        (not (= _for_it_56_0 _for_it_56_1))
      )
    )
    (forall ((_for_it_56_0 Int) (_for_it_56_1 Int))
      (or
        (not (= _for_it_55 (+ (select jn_val (- (+ _for_it_55 (* 4 _for_it_23) 5) (* ncldtop 4))) (- 1))))
        (not (= (select _if_cond_63_val (- (+ (* (+ _for_it_55 1) (- kfdia kidia)) _for_it_56_1 (* (- (+ _for_it_23 1) ncldtop) (- (* kfdia 4) (* kidia 4))) 1) kidia)) 1))
        (not (= (select _if_cond_62_val (- (+ _for_it_55 (* 4 _for_it_23) 4) (* ncldtop 4))) 1))
        (not (<= _for_it_56_1 (+ kfdia (- 1))))
        (not (<= (+ kidia (- 1)) _for_it_56_1))
        (not (= (select _if_cond_62_val (- (+ _for_it_55 (* 4 _for_it_23) 5) (* ncldtop 4))) 1))
        (not (<= _for_it_56_0 (+ kfdia (- 1))))
        (not (<= (+ kidia (- 1)) _for_it_56_0))
        (not (= (select _if_cond_63_val (- (+ (* _for_it_55 (- kfdia kidia)) _for_it_56_0 (* (- (+ _for_it_23 1) ncldtop) (- (* kfdia 4) (* kidia 4))) 1) kidia)) 1))
        (not (= _for_it_56_0 _for_it_56_1))
      )
    )
    (forall ((_for_it_56_0 Int) (_for_it_56_1 Int))
      (or
        (not (= (select _if_cond_63_val (- (+ (* (+ _for_it_55 1) (- kfdia kidia)) _for_it_56_1 (* (- (+ _for_it_23 1) ncldtop) (- (* kfdia 4) (* kidia 4))) 1) kidia)) 1))
        (not (= (select _if_cond_62_val (- (+ _for_it_55 (* 4 _for_it_23) 4) (* ncldtop 4))) 1))
        (not (<= _for_it_56_1 (+ kfdia (- 1))))
        (not (<= (+ kidia (- 1)) _for_it_56_1))
        (not (= (select _if_cond_62_val (- (+ _for_it_55 (* 4 _for_it_23) 5) (* ncldtop 4))) 1))
        (not (<= _for_it_56_0 (+ kfdia (- 1))))
        (not (<= (+ kidia (- 1)) _for_it_56_0))
        (not (= (select _if_cond_63_val (- (+ (* _for_it_55 (- kfdia kidia)) _for_it_56_0 (* (- (+ _for_it_23 1) ncldtop) (- (* kfdia 4) (* kidia 4))) 1) kidia)) 1))
        (not (= _for_it_56_0 _for_it_56_1))
        (not (= _for_it_55 (+ _for_it_55 1)))
      )
    )
    (forall ((_for_it_56_0 Int) (_for_it_56_1 Int))
      (or
        (not (= (select _if_cond_62_val (- (+ _for_it_55 (* 4 _for_it_23) 4) (* ncldtop 4))) 1))
        (not (<= _for_it_56_1 (+ kfdia (- 1))))
        (not (<= (+ kidia (- 1)) _for_it_56_1))
        (not (= (select _if_cond_62_val (- (+ _for_it_55 (* 4 _for_it_23) 5) (* ncldtop 4))) 1))
        (not (= (- (+ (* _for_it_55 (- kfdia kidia)) _for_it_56_0 (* (- (+ _for_it_23 1) ncldtop) (- (* kfdia 4) (* kidia 4))) 1) kidia) (- (+ (* (+ _for_it_55 1) (- kfdia kidia)) _for_it_56_1 (* (- (+ _for_it_23 1) ncldtop) (- (* kfdia 4) (* kidia 4))) 1) kidia)))
        (not (<= _for_it_56_0 (+ kfdia (- 1))))
        (not (<= (+ kidia (- 1)) _for_it_56_0))
      )
    )
    (not (= (- (+ _for_it_55 (* 4 _for_it_23) 4) (* ncldtop 4)) (- (+ _for_it_55 (* 4 _for_it_23) 5) (* ncldtop 4))))
    (or
      (not (= (- (+ _for_it_55 (* 4 _for_it_23) 4) (* ncldtop 4)) (- (+ _for_it_55 (* 4 _for_it_23) 5) (* ncldtop 4))))
      (not (= (select _if_cond_62_val (- (+ _for_it_55 (* 4 _for_it_23) 5) (* ncldtop 4))) 1))
      (not (= (select _if_cond_62_val (- (+ _for_it_55 (* 4 _for_it_23) 4) (* ncldtop 4))) 1))
    )
  )
))

(check-sat)